c CNF file corresponding to a (partial) station packing problem.
p cnf 3061 229
1 2 3 4 5 6 7 8 9 10 11 12 13 14 0
-1 -2 0
-1 -3 0
-1 -4 0
-1 -5 0
-1 -6 0
-1 -7 0
-1 -8 0
-1 -9 0
-1 -10 0
-1 -11 0
-1 -12 0
-1 -13 0
-1 -14 0
-2 -3 0
-2 -4 0
-2 -5 0
-2 -6 0
-2 -7 0
-2 -8 0
-2 -9 0
-2 -10 0
-2 -11 0
-2 -12 0
-2 -13 0
-2 -14 0
-3 -4 0
-3 -5 0
-3 -6 0
-3 -7 0
-3 -8 0
-3 -9 0
-3 -10 0
-3 -11 0
-3 -12 0
-3 -13 0
-3 -14 0
-4 -5 0
-4 -6 0
-4 -7 0
-4 -8 0
-4 -9 0
-4 -10 0
-4 -11 0
-4 -12 0
-4 -13 0
-4 -14 0
-5 -6 0
-5 -7 0
-5 -8 0
-5 -9 0
-5 -10 0
-5 -11 0
-5 -12 0
-5 -13 0
-5 -14 0
-6 -7 0
-6 -8 0
-6 -9 0
-6 -10 0
-6 -11 0
-6 -12 0
-6 -13 0
-6 -14 0
-7 -8 0
-7 -9 0
-7 -10 0
-7 -11 0
-7 -12 0
-7 -13 0
-7 -14 0
-8 -9 0
-8 -10 0
-8 -11 0
-8 -12 0
-8 -13 0
-8 -14 0
-9 -10 0
-9 -11 0
-9 -12 0
-9 -13 0
-9 -14 0
-10 -11 0
-10 -12 0
-10 -13 0
-10 -14 0
-11 -12 0
-11 -13 0
-11 -14 0
-12 -13 0
-12 -14 0
-13 -14 0
3045 3046 3047 3048 3049 3050 3051 3052 3053 3054 3055 3056 3057 3058 3059 3060 3061 0
-3045 -3046 0
-3045 -3047 0
-3045 -3048 0
-3045 -3049 0
-3045 -3050 0
-3045 -3051 0
-3045 -3052 0
-3045 -3053 0
-3045 -3054 0
-3045 -3055 0
-3045 -3056 0
-3045 -3057 0
-3045 -3058 0
-3045 -3059 0
-3045 -3060 0
-3045 -3061 0
-3046 -3047 0
-3046 -3048 0
-3046 -3049 0
-3046 -3050 0
-3046 -3051 0
-3046 -3052 0
-3046 -3053 0
-3046 -3054 0
-3046 -3055 0
-3046 -3056 0
-3046 -3057 0
-3046 -3058 0
-3046 -3059 0
-3046 -3060 0
-3046 -3061 0
-3047 -3048 0
-3047 -3049 0
-3047 -3050 0
-3047 -3051 0
-3047 -3052 0
-3047 -3053 0
-3047 -3054 0
-3047 -3055 0
-3047 -3056 0
-3047 -3057 0
-3047 -3058 0
-3047 -3059 0
-3047 -3060 0
-3047 -3061 0
-3048 -3049 0
-3048 -3050 0
-3048 -3051 0
-3048 -3052 0
-3048 -3053 0
-3048 -3054 0
-3048 -3055 0
-3048 -3056 0
-3048 -3057 0
-3048 -3058 0
-3048 -3059 0
-3048 -3060 0
-3048 -3061 0
-3049 -3050 0
-3049 -3051 0
-3049 -3052 0
-3049 -3053 0
-3049 -3054 0
-3049 -3055 0
-3049 -3056 0
-3049 -3057 0
-3049 -3058 0
-3049 -3059 0
-3049 -3060 0
-3049 -3061 0
-3050 -3051 0
-3050 -3052 0
-3050 -3053 0
-3050 -3054 0
-3050 -3055 0
-3050 -3056 0
-3050 -3057 0
-3050 -3058 0
-3050 -3059 0
-3050 -3060 0
-3050 -3061 0
-3051 -3052 0
-3051 -3053 0
-3051 -3054 0
-3051 -3055 0
-3051 -3056 0
-3051 -3057 0
-3051 -3058 0
-3051 -3059 0
-3051 -3060 0
-3051 -3061 0
-3052 -3053 0
-3052 -3054 0
-3052 -3055 0
-3052 -3056 0
-3052 -3057 0
-3052 -3058 0
-3052 -3059 0
-3052 -3060 0
-3052 -3061 0
-3053 -3054 0
-3053 -3055 0
-3053 -3056 0
-3053 -3057 0
-3053 -3058 0
-3053 -3059 0
-3053 -3060 0
-3053 -3061 0
-3054 -3055 0
-3054 -3056 0
-3054 -3057 0
-3054 -3058 0
-3054 -3059 0
-3054 -3060 0
-3054 -3061 0
-3055 -3056 0
-3055 -3057 0
-3055 -3058 0
-3055 -3059 0
-3055 -3060 0
-3055 -3061 0
-3056 -3057 0
-3056 -3058 0
-3056 -3059 0
-3056 -3060 0
-3056 -3061 0
-3057 -3058 0
-3057 -3059 0
-3057 -3060 0
-3057 -3061 0
-3058 -3059 0
-3058 -3060 0
-3058 -3061 0
-3059 -3060 0
-3059 -3061 0
-3060 -3061 0
